e = 20; % nombre d'events

duracio =         [1, 2, 3, 1, 3, 1, 4, 1, 4, 2, 4, 2, 2, 4, 3, 4, 6, 2, 6, 6]; % duracio de la prova, en periodes de 15 min

pistaOcamp =      [1, 1, 0, 0, 1, 0, 0, 1, 0, 0, 1, 1, 0, 1, 1, 0, 1, 1, 1, 1];  % pista = 0, camp = 1

pistaNecessaria = [1, 2, 1, 1, 2, 1, 1, 1, 1, 2, 1, 2, 2, 1, 2, 1, 1, 2, 1, 1]; % 1 si necessiten mitja pista, 2 si la necessiten completa

% descansos despres de fer la prova 1, la fila 1
descans = [| 0, 1, 2, 1, 1, 4, 2, 1, 1, 2, 2, 2, 3, 4, 3, 3, 4, 1, 2, 1
           | 3, 0, 2, 3, 2, 3, 4, 2, 2, 2, 2, 2, 3, 1, 3, 2, 2, 2, 1, 3
           | 4, 2, 0, 1, 2, 2, 2, 4, 3, 2, 2, 3, 3, 1, 1, 2, 1, 4, 2, 3
           | 2, 1, 1, 0, 2, 4, 1, 4, 3, 3, 3, 2, 4, 2, 2, 1, 3, 1, 2, 2
           | 2, 2, 3, 2, 0, 3, 1, 4, 3, 4, 1, 1, 1, 1, 1, 1, 3, 1, 1, 4
           | 1, 1, 4, 1, 3, 0, 1, 2, 2, 1, 1, 2, 3, 2, 1, 4, 4, 1, 2, 1
           | 3, 2, 2, 4, 4, 4, 0, 1, 1, 1, 1, 4, 1, 1, 2, 2, 3, 1, 2, 4
           | 4, 2, 2, 4, 1, 2, 1, 0, 1, 3, 1, 3, 4, 2, 2, 2, 1, 1, 1, 1
           | 2, 2, 3, 1, 3, 2, 2, 2, 0, 1, 2, 3, 2, 2, 3, 1, 1, 1, 1, 1
           | 2, 4, 1, 3, 1, 2, 1, 2, 1, 0, 3, 2, 4, 2, 3, 2, 1, 1, 4, 2
           | 2, 1, 2, 3, 1, 1, 2, 1, 1, 1, 0, 2, 2, 4, 2, 2, 1, 2, 1, 2
           | 1, 1, 3, 1, 2, 2, 1, 2, 4, 4, 2, 0, 3, 2, 2, 3, 2, 2, 1, 2
           | 4, 2, 2, 3, 3, 1, 4, 1, 1, 2, 1, 2, 0, 1, 2, 2, 4, 2, 1, 2
           | 1, 2, 2, 1, 3, 1, 1, 1, 1, 2, 3, 3, 2, 0, 1, 1, 2, 1, 1, 2
           | 3, 1, 2, 4, 2, 2, 1, 1, 2, 4, 2, 4, 4, 3, 0, 2, 1, 4, 2, 3
           | 2, 1, 2, 1, 1, 1, 1, 1, 2, 1, 2, 1, 2, 2, 2, 0, 1, 2, 2, 2
           | 2, 3, 3, 3, 1, 2, 3, 4, 3, 2, 2, 4, 2, 3, 2, 1, 0, 1, 4, 4
           | 1, 2, 1, 1, 4, 2, 3, 4, 4, 4, 4, 2, 2, 3, 1, 1, 3, 0, 3, 4
           | 1, 3, 3, 1, 2, 1, 4, 4, 1, 3, 2, 2, 1, 1, 4, 2, 1, 2, 0, 1
           | 3, 1, 2, 1, 1, 4, 2, 1, 1, 2, 1, 2, 2, 2, 4, 1, 1, 2, 2, 0 |];

% participant comu a proves 1 i 3 (per tot i, j, sempre i < j per indicar si tenen participant comu)
participantComu = [| false, false, false, false, true , true , false, false, true , true , true , false, false, false, false, true , true , false, true , false
                   | false, false, false, false, false, false, false, true , false, false, false, true , false, true , false, false, false, false, false, false
                   | false, false, false, false, false, true , false, true , false, false, true , false, true , false, false, false, false, true , false, false
                   | false, false, false, false, false, true , false, false, false, false, true , false, false, false, false, false, true , false, false, false
                   | false, false, false, false, false, false, false, false, false, false, false, false, true , true , false, false, false, false, false, true 
                   | false, false, false, false, false, false, true , false, true , false, false, true , true , true , false, false, false, false, false, false
                   | false, false, false, false, false, false, false, false, false, true , true , false, false, false, false, false, false, true , true , true 
                   | false, false, false, false, false, false, false, false, false, false, false, false, false, false, false, false, true , false, false, false
                   | false, false, false, false, false, false, false, false, false, false, true , false, false, false, false, false, true , false, false, true 
                   | false, false, false, false, false, false, false, false, false, false, false, false, false, true , false, true , false, false, false, false
                   | false, false, false, false, false, false, false, false, false, false, false, false, false, true , true , false, false, true , false, false
                   | false, false, false, false, false, false, false, false, false, false, false, false, true , false, true , false, false, false, false, true 
                   | false, false, false, false, false, false, false, false, false, false, false, false, false, true , false, false, true , false, false, false
                   | false, false, false, false, false, false, false, false, false, false, false, false, false, false, false, true , false, true , false, false
                   | false, false, false, false, false, false, false, false, false, false, false, false, false, false, false, false, true , true , false, false
                   | false, false, false, false, false, false, false, false, false, false, false, false, false, false, false, false, false, false, true , false
                   | false, false, false, false, false, false, false, false, false, false, false, false, false, false, false, false, false, true , false, false
                   | false, false, false, false, false, false, false, false, false, false, false, false, false, false, false, false, false, false, true , false
                   | false, false, false, false, false, false, false, false, false, false, false, false, false, false, false, false, false, false, false, true 
                   | false, false, false, false, false, false, false, false, false, false, false, false, false, false, false, false, false, false, false, false |];